\* Problem: Unknown *\

Maximize
 obj: + xp_0_0 + xp_0_1 + xp_0_2 + xp_1_0 + xp_1_1 + xp_2_0 + xp_2_1
 + xp_3_0 + xp_3_1 + xp_3_2 + xp_4_0 + xp_4_1 + xp_4_2 + xp_4_3 + xp_4_4
 + xp_4_5 + xp_5_0 + xp_6_0 + xp_6_1 + xp_7_0 + xp_8_0 + xp_9_0 + xp_9_1
 + xp_9_2 + xp_9_3 + xp_9_4 + xp_9_5 + xp_10_0 + xp_10_1 + xp_11_0
 + xp_11_1 + xp_12_0 + xp_12_1 + xp_12_2 + xp_12_3 + xp_12_4 + xp_12_5
 + xp_12_6 + xp_13_0 + xp_13_1 + xp_13_2 + xp_14_0 + xp_14_1 + xp_15_0
 + xp_15_1 + xp_15_2 + xp_15_3 + xp_15_4 + xp_16_0 + xp_17_0 + xp_17_1
 + xp_18_0 + xp_18_1 + xp_18_2 + xp_18_3 + xp_18_4 + xp_18_5 + xp_19_0
 + xp_19_1 + xp_19_2 + xp_19_3 + xp_19_4 + xp_19_5 + xp_20_0 + xp_21_0
 + xp_21_1 + xp_21_2 + xp_22_0 + xp_22_1 + xp_23_0 + xp_24_0 + xp_24_1
 + xp_24_2 + xp_24_3 + xp_24_4 + xp_24_5 + xp_24_6 + xp_24_7 + xp_24_8
 + xp_24_9 + xp_25_0 + xp_26_0 + xp_26_1 + xp_26_2 + xp_26_3 + xp_26_4
 + xp_27_0 + xp_27_1 + xp_28_0 + xp_28_1 + xp_28_2 + xp_28_3 + xp_29_0
 + xp_30_0 + xp_30_1 + xp_30_2 + xp_31_0 + xp_32_0 + xp_32_1 + xp_32_2
 + xp_32_3 + xp_32_4 + xp_32_5 + xp_32_6 + xp_32_7 + xp_33_0 + xp_34_0
 + xp_34_1 + xp_35_0 + xp_36_0 + xp_36_1 + xp_37_0 + xp_38_0 + xp_38_1
 + xp_38_2 + xp_38_3 + xp_38_4 + xp_38_5 + xp_39_0 + xp_40_0 + xp_40_1
 + xp_40_2 + xp_40_3 + xp_41_0 + xp_41_1 + xp_42_0 + xp_42_1 + xp_42_2
 + xp_42_3 + xp_43_0 + xp_44_0 + xp_44_1 + xp_44_2 + xp_44_3 + xp_44_4
 + xp_44_5 + xp_45_0 + xp_45_1 + xp_45_2 + xp_45_3 + xp_45_4 + xp_46_0
 + xp_46_1 + xp_46_2 + xp_46_3 + xp_47_0 + xp_48_0 + xp_48_1 + xp_48_2
 + xp_48_3 + xp_49_0 + xp_49_1 + xp_49_2 + xp_50_0 + xp_50_1 + xp_50_2
 + xp_50_3 + xp_51_0 + xp_51_1 + xp_52_0 + xp_52_1 + xp_53_0 + xp_53_1
 + xp_53_2 + xp_54_0 + xp_54_1 + xp_55_0 + xp_55_1 + xp_56_0 + xp_56_1
 + xp_56_2 + xp_57_0 + xp_57_1 + xp_58_0 + xp_58_1 + xp_58_2 + xp_58_3
 + xp_59_0 + xp_59_1 + xp_59_2 + xp_60_0 + xp_60_1 + xp_60_2 + xp_60_3
 + xp_61_0 + xp_61_1 + xp_62_0 + xp_63_0 + xp_63_1 + xp_64_0 + xp_65_0
 + xp_65_1 + xp_66_0 + xp_67_0 + xp_67_1 + xp_68_0 + xp_68_1 + xp_68_2
 + xp_68_3 + xp_69_0 + xp_70_0 + xp_71_0 + xp_71_1 + xp_72_0 + xp_73_0
 + xp_73_1 + xp_73_2 + xp_74_0 + xp_74_1 + xp_75_0 + xp_75_1 + xp_76_0
 + xp_77_0 + xp_77_1 + xp_77_2 + xp_77_3 + xp_78_0 + xp_78_1 + xp_78_2
 + xp_78_3 + xp_78_4 + xp_78_5 + xp_78_6 + xp_79_0 + xp_79_1 + xp_79_2
 + xp_80_0 + xp_80_1 + xp_80_2 + xp_80_3 + xp_81_0 + xp_81_1 + xp_81_2
 + xp_81_3 + xp_81_4 + xp_82_0 + xp_82_1 + xp_82_2 + xp_82_3 + xp_83_0
 + xp_83_1 + xp_84_0 + xp_84_1 + xp_85_0 + xp_85_1 + xp_85_2 + xp_85_3
 + xp_85_4 + xp_85_5 + xp_85_6 + xp_85_7 + xp_86_0 + xp_86_1 + xp_86_2
 + xp_87_0 + xp_88_0 + xp_88_1 + xp_89_0 + xp_89_1 + xp_89_2 + xp_89_3
 + xp_90_0 + xp_90_1 + xp_90_2 + xp_90_3 + xp_91_0 + xp_91_1 + xp_91_2
 + xp_92_0 + xp_92_1 + xp_92_2 + xp_92_3 + xp_93_0 + xp_93_1 + xp_94_0
 + xp_94_1 + xp_94_2 + xp_94_3 + xp_94_4 + xp_94_5 + xp_94_6 + xp_95_0
 + xp_95_1 + xp_95_2 + xp_96_0 + xp_96_1 + xp_97_0 + xp_98_0 + xp_98_1
 + xp_98_2 + xp_98_3 + xp_98_4 + xp_99_0 + xp_99_1 + xp_99_2 + xp_100_0
 + xp_100_1 + xp_100_2 + xp_101_0 + xp_101_1 + xp_102_0 + xp_103_0
 + xp_104_0 + xp_104_1 + xp_104_2 + xp_105_0 + xp_105_1 + xp_106_0
 + xp_106_1 + xp_106_2 + xp_107_0 + xp_108_0 + xp_108_1 + xp_108_2
 + xp_109_0 + xp_109_1 + xp_110_0 + xp_111_0 + xp_111_1 + xp_111_2
 + xp_111_3 + xp_111_4 + xp_112_0 + xp_112_1 + xp_112_2 + xp_112_3
 + xp_112_4 + xp_112_5 + xp_113_0 + xp_114_0 + xp_115_0 + xp_115_1
 + xp_116_0 + xp_116_1 + xp_117_0 + xp_117_1 + xp_117_2 + xp_118_0
 + xp_119_0 + xp_119_1 + xp_119_2 + xp_119_3 + xp_119_4 + xp_120_0
 + xp_120_1 + xp_120_2 + xp_120_3 + xp_121_0 + xp_122_0 + xp_123_0
 + xp_123_1 + xp_124_0 + xp_124_1 + xp_124_2 + xp_124_3 + xp_125_0
 + xp_125_1 + xp_126_0 + xp_126_1 + xp_126_2 + xp_126_3 + xp_126_4
 + xp_126_5 + xp_126_6 + xp_126_7 + xp_127_0 + xp_127_1 + xp_128_0
 + xp_128_1 + xp_128_2 + xp_128_3 + xp_128_4 + xp_128_5 + xp_129_0
 + xp_129_1 + xp_130_0 + xp_131_0 + xp_131_1 + xp_131_2 + xp_131_3
 + xp_131_4 + xp_131_5 + xp_131_6

Subject To
 r_1: + xp_128_5 + xp_128_4 + xp_128_3 + xp_128_2 + xp_128_1 + xp_123_1
 + xp_122_0 + xp_121_0 + xp_108_2 + xp_107_0 + xp_93_1 + xp_85_7
 + xp_85_6 + xp_85_5 + xp_78_6 + xp_78_5 + xp_78_3 + xp_73_2 + xp_73_1
 + xp_67_1 + xp_57_1 + xp_52_1 + xp_46_2 + xp_46_1 + xp_44_4 + xp_44_3
 + xp_44_2 + xp_40_3 + xp_40_2 + xp_40_1 + xp_28_3 + xp_28_2 + xp_25_0
 + xp_22_1 + xp_19_5 + xp_19_4 + xp_18_5 + xp_18_4 + xp_18_3 + xp_18_2
 + xp_18_0 + xp_16_0 + xp_13_2 + xp_13_1 + xp_6_1 + xp_4_5 + xp_4_4
 + xp_4_3 + xp_4_2 + xp_4_1 + xp_4_0 <= 35117.6705225369
 r_2: + xp_131_6 + xp_131_2 + xp_131_1 + xp_127_1 + xp_126_7 + xp_126_6
 + xp_126_5 + xp_126_2 + xp_120_1 + xp_120_0 + xp_94_5 + xp_94_4
 + xp_94_2 + xp_94_1 + xp_93_0 + xp_90_3 + xp_90_2 + xp_89_2 + xp_89_1
 + xp_85_4 + xp_85_3 + xp_85_2 + xp_85_1 + xp_85_0 + xp_77_2 + xp_77_1
 + xp_75_1 + xp_75_0 + xp_74_1 + xp_71_0 + xp_66_0 + xp_65_1 + xp_65_0
 + xp_61_1 + xp_55_0 + xp_52_0 + xp_48_3 + xp_48_2 + xp_48_1 + xp_48_0
 + xp_42_2 + xp_42_1 + xp_38_5 + xp_38_2 + xp_38_1 + xp_32_7 + xp_32_6
 + xp_32_1 + xp_32_0 + xp_28_1 + xp_28_0 + xp_24_9 + xp_24_7 + xp_24_3
 + xp_24_2 + xp_24_0 + xp_19_3 + xp_19_2 + xp_19_1 + xp_19_0 + xp_12_6
 + xp_12_2 + xp_12_1 + xp_1_1 <= 33574.949790031
 r_3: + xp_128_5 + xp_128_4 + xp_126_6 + xp_126_4 + xp_124_3 + xp_124_2
 + xp_117_2 + xp_117_1 + xp_114_0 + xp_106_2 + xp_105_1 + xp_100_2
 + xp_98_4 + xp_98_3 + xp_95_0 + xp_94_6 + xp_94_5 + xp_94_4 + xp_92_3
 + xp_91_2 + xp_85_6 + xp_85_4 + xp_85_3 + xp_84_1 + xp_83_1 + xp_80_3
 + xp_79_2 + xp_76_0 + xp_68_3 + xp_60_3 + xp_58_2 + xp_48_2 + xp_46_3
 + xp_46_1 + xp_41_1 + xp_40_3 + xp_34_0 + xp_32_6 + xp_32_2 + xp_30_2
 + xp_26_4 + xp_26_3 + xp_24_9 + xp_24_8 + xp_24_7 + xp_24_5 + xp_21_1
 + xp_15_4 + xp_15_2 + xp_9_4 + xp_9_3 <= 34147.1747700394
 r_4: + xp_131_6 + xp_131_4 + xp_119_3 + xp_117_0 + xp_112_4 + xp_112_2
 + xp_111_4 + xp_111_2 + xp_104_2 + xp_95_2 + xp_95_1 + xp_91_1
 + xp_91_0 + xp_88_1 + xp_84_0 + xp_82_1 + xp_81_4 + xp_81_3 + xp_79_1
 + xp_79_0 + xp_78_6 + xp_78_4 + xp_59_1 + xp_56_2 + xp_53_2 + xp_50_3
 + xp_49_2 + xp_46_2 + xp_46_0 + xp_45_4 + xp_45_3 + xp_44_4 + xp_44_1
 + xp_43_0 + xp_40_2 + xp_40_1 + xp_40_0 + xp_34_1 + xp_27_1 + xp_19_3
 + xp_18_5 + xp_18_4 + xp_12_6 + xp_12_4 + xp_4_5 + xp_4_3 + xp_3_2
 <= 33878.0103533648
 r_5: + xp_131_6 + xp_131_4 + xp_130_0 + xp_119_3 + xp_112_4 + xp_112_2
 + xp_111_4 + xp_111_2 + xp_104_2 + xp_99_0 + xp_88_1 + xp_86_0
 + xp_82_1 + xp_81_4 + xp_81_3 + xp_78_6 + xp_78_4 + xp_59_1 + xp_56_2
 + xp_53_2 + xp_50_3 + xp_49_2 + xp_45_4 + xp_45_3 + xp_44_4 + xp_44_1
 + xp_38_5 + xp_38_4 + xp_27_1 + xp_19_3 + xp_18_5 + xp_18_4 + xp_12_6
 + xp_12_4 + xp_7_0 + xp_4_5 + xp_4_3 + xp_3_2 + xp_2_0 + xp_0_2
 <= 34147.1747700394
 r_6: + xp_128_5 + xp_128_4 + xp_128_3 + xp_126_6 + xp_126_5 + xp_126_4
 + xp_126_3 + xp_119_4 + xp_119_0 + xp_117_2 + xp_117_1 + xp_114_0
 + xp_104_1 + xp_100_2 + xp_100_1 + xp_95_0 + xp_92_3 + xp_92_2
 + xp_91_2 + xp_84_1 + xp_83_1 + xp_83_0 + xp_82_3 + xp_82_2 + xp_81_0
 + xp_80_3 + xp_80_2 + xp_79_2 + xp_73_2 + xp_70_0 + xp_68_3 + xp_68_2
 + xp_60_3 + xp_60_2 + xp_58_2 + xp_58_1 + xp_53_0 + xp_48_2 + xp_48_1
 + xp_46_3 + xp_46_1 + xp_45_0 + xp_44_5 + xp_44_2 + xp_40_3 + xp_34_0
 + xp_32_6 + xp_32_4 + xp_32_2 + xp_32_1 + xp_30_2 + xp_30_1 + xp_21_2
 + xp_21_1 + xp_18_0 + xp_15_4 + xp_15_3 + xp_15_2 + xp_15_1 + xp_9_5
 + xp_9_4 + xp_9_3 + xp_9_2 <= 34692.9080420767
 r_7: + xp_131_5 + xp_119_2 + xp_119_1 + xp_112_3 + xp_112_1 + xp_111_3
 + xp_111_1 + xp_104_0 + xp_88_0 + xp_82_0 + xp_81_2 + xp_81_1 + xp_78_5
 + xp_78_2 + xp_59_2 + xp_56_1 + xp_53_1 + xp_50_2 + xp_49_1 + xp_45_2
 + xp_45_1 + xp_44_3 + xp_44_0 + xp_27_0 + xp_19_2 + xp_18_3 + xp_18_2
 + xp_18_1 + xp_12_5 + xp_4_2 + xp_4_1 + xp_3_1 <= 33878.0103533648
 r_8: + xp_131_6 + xp_131_2 + xp_131_1 + xp_127_1 + xp_126_7 + xp_126_6
 + xp_126_5 + xp_126_2 + xp_120_1 + xp_120_0 + xp_118_0 + xp_103_0
 + xp_94_5 + xp_94_4 + xp_94_2 + xp_94_1 + xp_90_3 + xp_90_2 + xp_89_2
 + xp_89_1 + xp_77_2 + xp_77_1 + xp_74_1 + xp_71_0 + xp_61_1 + xp_55_0
 + xp_42_2 + xp_42_1 + xp_38_5 + xp_38_2 + xp_38_1 + xp_32_7 + xp_32_6
 + xp_32_1 + xp_32_0 + xp_24_9 + xp_24_7 + xp_24_3 + xp_24_2 + xp_24_0
 + xp_12_6 + xp_12_2 + xp_12_1 + xp_1_1 <= 35117.6705225369
 r_9: + xp_131_5 + xp_131_4 + xp_131_3 + xp_131_0 + xp_127_0 + xp_123_1
 + xp_122_0 + xp_120_3 + xp_120_2 + xp_108_2 + xp_93_1 + xp_85_7
 + xp_85_6 + xp_85_5 + xp_78_6 + xp_78_5 + xp_78_3 + xp_77_3 + xp_77_0
 + xp_73_2 + xp_73_1 + xp_71_1 + xp_67_1 + xp_57_1 + xp_55_1 + xp_52_1
 + xp_46_2 + xp_46_1 + xp_44_4 + xp_44_3 + xp_44_2 + xp_42_3 + xp_42_0
 + xp_33_0 + xp_32_5 + xp_32_4 + xp_32_3 + xp_32_2 + xp_28_3 + xp_28_2
 + xp_24_8 + xp_24_6 + xp_24_5 + xp_24_4 + xp_24_1 + xp_19_5 + xp_19_4
 + xp_6_1 <= 35421.6335540839
 r_10: + xp_131_6 + xp_131_5 + xp_131_4 + xp_112_4 + xp_112_3 + xp_112_2
 + xp_112_1 + xp_111_4 + xp_111_3 + xp_111_2 + xp_111_1 + xp_106_0
 + xp_99_0 + xp_98_0 + xp_88_1 + xp_88_0 + xp_86_0 + xp_85_0 + xp_78_6
 + xp_78_5 + xp_78_4 + xp_78_2 + xp_59_2 + xp_59_1 + xp_56_2 + xp_56_1
 + xp_50_3 + xp_50_2 + xp_49_2 + xp_49_1 + xp_38_5 + xp_38_4 + xp_26_0
 + xp_24_6 + xp_24_0 + xp_19_3 + xp_19_2 + xp_12_6 + xp_12_5 + xp_12_4
 + xp_8_0 + xp_7_0 + xp_4_5 + xp_4_3 + xp_4_2 + xp_4_1 + xp_3_2 + xp_3_1
 + xp_2_0 + xp_0_2 <= 34692.9080420767
 r_11: + xp_128_5 + xp_128_4 + xp_128_3 + xp_119_4 + xp_119_0 + xp_117_2
 + xp_117_1 + xp_112_5 + xp_112_0 + xp_111_0 + xp_104_1 + xp_100_2
 + xp_100_1 + xp_95_0 + xp_91_2 + xp_84_1 + xp_82_3 + xp_82_2 + xp_81_0
 + xp_80_3 + xp_80_2 + xp_79_2 + xp_78_3 + xp_78_1 + xp_78_0 + xp_73_2
 + xp_60_3 + xp_60_2 + xp_59_0 + xp_53_0 + xp_50_1 + xp_50_0 + xp_49_0
 + xp_46_3 + xp_46_1 + xp_45_0 + xp_44_5 + xp_44_2 + xp_40_3 + xp_34_0
 + xp_21_2 + xp_21_1 + xp_18_0 + xp_15_4 + xp_15_3 + xp_15_2 + xp_15_1
 + xp_9_5 + xp_9_4 + xp_9_3 + xp_9_2 + xp_4_4 + xp_4_0 + xp_3_0
 <= 33885.998642841
 r_12: + xp_129_0 + xp_128_5 + xp_128_1 + xp_128_0 + xp_123_0 + xp_119_4
 + xp_119_3 + xp_119_1 + xp_117_1 + xp_117_0 + xp_112_5 + xp_112_2
 + xp_112_1 + xp_111_2 + xp_111_1 + xp_108_1 + xp_101_0 + xp_95_1
 + xp_91_1 + xp_82_3 + xp_82_1 + xp_82_0 + xp_81_4 + xp_81_1 + xp_80_1
 + xp_79_1 + xp_78_4 + xp_78_2 + xp_78_0 + xp_73_0 + xp_63_1 + xp_60_0
 + xp_50_3 + xp_50_2 + xp_50_1 + xp_46_3 + xp_46_0 + xp_45_4 + xp_45_1
 + xp_44_5 + xp_44_1 + xp_44_0 + xp_40_2 + xp_40_0 + xp_18_5 + xp_18_2
 + xp_18_1 + xp_17_1 + xp_15_2 + xp_15_1 + xp_15_0 + xp_14_1 + xp_13_2
 + xp_13_0 + xp_10_1 + xp_9_5 + xp_9_4 + xp_9_0 + xp_4_5 + xp_4_4
 + xp_4_1 <= 33997.5816203144
 r_13: + xp_129_1 + xp_128_2 + xp_126_7 + xp_126_1 + xp_123_1 + xp_120_2
 + xp_120_1 + xp_119_2 + xp_112_4 + xp_112_3 + xp_111_4 + xp_111_3
 + xp_109_1 + xp_101_1 + xp_100_0 + xp_96_1 + xp_95_2 + xp_92_1
 + xp_91_0 + xp_90_3 + xp_90_0 + xp_81_3 + xp_81_2 + xp_80_0 + xp_79_0
 + xp_78_6 + xp_78_5 + xp_75_1 + xp_73_1 + xp_68_0 + xp_63_0 + xp_60_1
 + xp_59_2 + xp_59_1 + xp_58_3 + xp_54_1 + xp_53_2 + xp_53_1 + xp_49_2
 + xp_49_1 + xp_48_3 + xp_46_2 + xp_45_3 + xp_45_2 + xp_44_4 + xp_44_3
 + xp_40_1 + xp_34_1 + xp_32_7 + xp_32_5 + xp_31_0 + xp_30_0 + xp_18_4
 + xp_18_3 + xp_17_0 + xp_13_1 + xp_9_1 + xp_4_3 + xp_4_2
 <= 33885.998642841
 r_14: + xp_131_3 + xp_131_2 + xp_131_1 + xp_131_0 + xp_126_6 + xp_126_5
 + xp_126_4 + xp_126_3 + xp_125_1 + xp_125_0 + xp_124_3 + xp_124_2
 + xp_124_1 + xp_124_0 + xp_115_1 + xp_115_0 + xp_106_2 + xp_106_1
 + xp_99_2 + xp_99_1 + xp_98_4 + xp_98_3 + xp_98_2 + xp_98_1 + xp_94_6
 + xp_94_5 + xp_94_4 + xp_94_3 + xp_94_2 + xp_94_1 + xp_94_0 + xp_92_3
 + xp_92_2 + xp_86_2 + xp_86_1 + xp_85_7 + xp_85_6 + xp_85_5 + xp_85_4
 + xp_85_3 + xp_85_2 + xp_85_1 + xp_77_3 + xp_77_2 + xp_77_1 + xp_77_0
 + xp_68_3 + xp_68_2 + xp_65_1 + xp_65_0 + xp_58_2 + xp_58_1 + xp_56_0
 + xp_51_1 + xp_51_0 + xp_48_2 + xp_48_1 + xp_41_1 + xp_41_0 + xp_38_3
 + xp_38_2 + xp_38_1 + xp_38_0 + xp_35_0 + xp_32_6 + xp_32_4 + xp_32_2
 + xp_32_1 + xp_30_2 + xp_30_1 + xp_26_4 + xp_26_3 + xp_26_2 + xp_26_1
 + xp_24_9 + xp_24_8 + xp_24_7 + xp_24_5 + xp_24_4 + xp_24_3 + xp_24_2
 + xp_24_1 + xp_20_0 + xp_19_5 + xp_19_4 + xp_19_1 + xp_19_0 + xp_12_3
 + xp_12_2 + xp_12_1 + xp_12_0 + xp_2_1 + xp_0_1 + xp_0_0
 <= 33878.0103533648
 r_15: + xp_131_1 + xp_131_0 + xp_126_7 + xp_126_6 + xp_126_5 + xp_126_4
 + xp_126_3 + xp_126_1 + xp_125_0 + xp_124_2 + xp_124_0 + xp_120_2
 + xp_120_1 + xp_116_0 + xp_115_0 + xp_109_1 + xp_99_1 + xp_98_3
 + xp_98_1 + xp_96_1 + xp_94_4 + xp_94_2 + xp_94_0 + xp_92_3 + xp_92_2
 + xp_92_1 + xp_90_3 + xp_90_0 + xp_89_1 + xp_89_0 + xp_86_1 + xp_85_5
 + xp_85_3 + xp_85_1 + xp_77_1 + xp_77_0 + xp_75_1 + xp_68_3 + xp_68_2
 + xp_68_0 + xp_65_0 + xp_58_3 + xp_58_2 + xp_58_1 + xp_54_1 + xp_51_0
 + xp_48_3 + xp_48_2 + xp_48_1 + xp_42_1 + xp_42_0 + xp_38_2 + xp_38_0
 + xp_36_0 + xp_32_7 + xp_32_6 + xp_32_5 + xp_32_4 + xp_32_2 + xp_32_1
 + xp_28_3 + xp_28_1 + xp_26_4 + xp_26_1 + xp_24_9 + xp_24_8 + xp_24_2
 + xp_24_1 + xp_19_4 + xp_19_1 + xp_12_2 + xp_12_0 + xp_11_0 + xp_0_0
 <= 33997.5816203144
 r_16: + xp_128_0 + xp_123_0 + xp_108_1 + xp_108_0 + xp_78_4 + xp_78_2
 + xp_78_1 + xp_78_0 + xp_73_0 + xp_67_0 + xp_57_0 + xp_46_3 + xp_46_0
 + xp_44_5 + xp_44_1 + xp_44_0 + xp_40_0 + xp_22_0 + xp_18_1 + xp_13_0
 + xp_6_0 <= 35421.6335540839
 r_17: + xp_131_5 + xp_131_4 + xp_131_3 + xp_129_0 + xp_128_5 + xp_128_1
 + xp_126_0 + xp_124_3 + xp_124_1 + xp_120_3 + xp_119_4 + xp_119_3
 + xp_119_1 + xp_112_5 + xp_112_2 + xp_112_1 + xp_111_2 + xp_111_1
 + xp_109_0 + xp_97_0 + xp_95_1 + xp_94_6 + xp_94_3 + xp_93_1 + xp_91_1
 + xp_90_1 + xp_89_3 + xp_85_7 + xp_85_6 + xp_81_4 + xp_81_1 + xp_80_1
 + xp_79_1 + xp_77_3 + xp_71_1 + xp_68_1 + xp_63_1 + xp_62_0 + xp_61_0
 + xp_60_0 + xp_55_1 + xp_51_1 + xp_47_0 + xp_45_4 + xp_45_1 + xp_42_3
 + xp_40_2 + xp_38_4 + xp_38_3 + xp_36_1 + xp_32_3 + xp_28_2 + xp_24_6
 + xp_24_5 + xp_24_4 + xp_22_1 + xp_19_5 + xp_18_5 + xp_18_2 + xp_17_1
 + xp_13_2 + xp_12_5 + xp_12_4 + xp_12_3 + xp_10_1 + xp_9_5 + xp_9_4
 + xp_9_0 + xp_6_1 + xp_4_5 + xp_4_4 + xp_4_1 + xp_1_0 + xp_0_2 + xp_0_1
 <= 33574.949790031
 r_18: + xp_131_6 + xp_131_5 + xp_131_4 + xp_126_7 + xp_126_2 + xp_126_1
 + xp_126_0 + xp_106_0 + xp_99_0 + xp_98_0 + xp_92_1 + xp_92_0 + xp_86_0
 + xp_85_0 + xp_68_1 + xp_68_0 + xp_58_3 + xp_58_0 + xp_56_2 + xp_56_1
 + xp_48_3 + xp_48_0 + xp_38_5 + xp_38_4 + xp_32_7 + xp_32_5 + xp_32_3
 + xp_32_0 + xp_30_0 + xp_26_0 + xp_24_6 + xp_24_0 + xp_19_3 + xp_19_2
 + xp_12_6 + xp_12_5 + xp_12_4 + xp_5_0 + xp_2_0 + xp_0_2
 <= 33885.998642841
 r_19: + xp_131_3 + xp_131_2 + xp_128_5 + xp_125_1 + xp_124_3 + xp_124_1
 + xp_119_4 + xp_117_1 + xp_116_1 + xp_115_1 + xp_112_5 + xp_110_0
 + xp_108_1 + xp_106_2 + xp_106_1 + xp_104_1 + xp_99_2 + xp_98_4
 + xp_98_2 + xp_94_6 + xp_94_5 + xp_94_3 + xp_94_1 + xp_89_3 + xp_89_2
 + xp_86_2 + xp_85_7 + xp_85_6 + xp_85_4 + xp_85_2 + xp_84_1 + xp_82_3
 + xp_78_0 + xp_77_3 + xp_77_2 + xp_65_1 + xp_56_0 + xp_51_1 + xp_50_1
 + xp_46_3 + xp_44_5 + xp_42_3 + xp_42_2 + xp_38_3 + xp_38_1 + xp_36_1
 + xp_28_2 + xp_28_0 + xp_26_3 + xp_26_2 + xp_24_7 + xp_24_5 + xp_24_4
 + xp_24_3 + xp_21_2 + xp_21_1 + xp_19_5 + xp_19_0 + xp_15_2 + xp_15_1
 + xp_14_1 + xp_12_3 + xp_12_1 + xp_11_1 + xp_10_1 + xp_9_5 + xp_9_4
 + xp_4_4 + xp_3_0 + xp_2_1 + xp_0_1 <= 33885.998642841
 r_20: + xp_129_1 + xp_128_4 + xp_128_3 + xp_128_2 + xp_123_1 + xp_119_2
 + xp_119_0 + xp_117_2 + xp_112_4 + xp_112_3 + xp_112_0 + xp_111_4
 + xp_111_3 + xp_111_0 + xp_108_2 + xp_108_0 + xp_107_0 + xp_101_1
 + xp_95_2 + xp_95_0 + xp_91_2 + xp_91_0 + xp_82_2 + xp_81_3 + xp_81_2
 + xp_81_0 + xp_80_3 + xp_80_2 + xp_80_0 + xp_79_2 + xp_79_0 + xp_78_6
 + xp_78_5 + xp_78_3 + xp_78_1 + xp_73_2 + xp_73_1 + xp_69_0 + xp_64_0
 + xp_63_0 + xp_60_3 + xp_60_2 + xp_60_1 + xp_50_0 + xp_49_2 + xp_49_1
 + xp_49_0 + xp_46_2 + xp_46_1 + xp_45_3 + xp_45_2 + xp_45_0 + xp_44_4
 + xp_44_3 + xp_44_2 + xp_40_3 + xp_40_1 + xp_18_4 + xp_18_3 + xp_18_0
 + xp_17_0 + xp_15_4 + xp_15_3 + xp_14_0 + xp_13_1 + xp_10_0 + xp_9_3
 + xp_9_2 + xp_9_1 + xp_4_3 + xp_4_2 + xp_4_0 <= 33574.949790031
 r_21: + xp_128_5 + xp_128_4 + xp_126_6 + xp_126_4 + xp_124_3 + xp_124_2
 + xp_113_0 + xp_106_2 + xp_105_1 + xp_100_2 + xp_99_2 + xp_99_1
 + xp_98_4 + xp_98_3 + xp_94_6 + xp_94_5 + xp_94_4 + xp_92_3 + xp_86_2
 + xp_86_1 + xp_85_6 + xp_85_4 + xp_85_3 + xp_83_1 + xp_80_3 + xp_77_3
 + xp_77_2 + xp_77_1 + xp_77_0 + xp_68_3 + xp_65_1 + xp_65_0 + xp_60_3
 + xp_58_2 + xp_48_2 + xp_41_1 + xp_38_3 + xp_38_2 + xp_38_1 + xp_38_0
 + xp_32_6 + xp_32_2 + xp_30_2 + xp_26_4 + xp_26_3 + xp_24_9 + xp_24_8
 + xp_24_7 + xp_24_5 + xp_21_1 + xp_20_0 + xp_15_4 + xp_15_2 + xp_9_4
 + xp_9_3 + xp_2_1 + xp_0_1 + xp_0_0 <= 33878.0103533648
 r_22: + xp_128_3 + xp_126_5 + xp_126_3 + xp_124_1 + xp_124_0 + xp_106_1
 + xp_105_0 + xp_100_1 + xp_98_2 + xp_98_1 + xp_94_3 + xp_94_2 + xp_94_1
 + xp_94_0 + xp_92_2 + xp_85_7 + xp_85_5 + xp_85_2 + xp_85_1 + xp_83_0
 + xp_80_2 + xp_73_2 + xp_68_2 + xp_60_2 + xp_58_1 + xp_48_1 + xp_41_0
 + xp_32_4 + xp_32_1 + xp_30_1 + xp_26_2 + xp_26_1 + xp_24_4 + xp_24_3
 + xp_24_2 + xp_24_1 + xp_21_2 + xp_15_3 + xp_15_1 + xp_9_5 + xp_9_2
 <= 33878.0103533648
 r_23: + xp_128_2 + xp_128_1 + xp_128_0 + xp_119_3 + xp_119_2 + xp_119_1
 + xp_117_0 + xp_112_4 + xp_112_3 + xp_112_2 + xp_112_1 + xp_111_4
 + xp_111_3 + xp_111_2 + xp_111_1 + xp_104_2 + xp_104_0 + xp_100_0
 + xp_95_2 + xp_95_1 + xp_91_1 + xp_91_0 + xp_84_0 + xp_82_1 + xp_82_0
 + xp_81_4 + xp_81_3 + xp_81_2 + xp_81_1 + xp_80_1 + xp_80_0 + xp_79_1
 + xp_79_0 + xp_78_6 + xp_78_5 + xp_78_4 + xp_78_2 + xp_73_1 + xp_73_0
 + xp_60_1 + xp_60_0 + xp_59_2 + xp_59_1 + xp_53_2 + xp_53_1 + xp_50_3
 + xp_50_2 + xp_49_2 + xp_49_1 + xp_46_2 + xp_46_0 + xp_45_4 + xp_45_3
 + xp_45_2 + xp_45_1 + xp_44_4 + xp_44_3 + xp_44_1 + xp_44_0 + xp_40_2
 + xp_40_1 + xp_40_0 + xp_34_1 + xp_21_0 + xp_18_5 + xp_18_4 + xp_18_3
 + xp_18_2 + xp_18_1 + xp_15_0 + xp_9_1 + xp_9_0 + xp_4_5 + xp_4_3
 + xp_4_2 + xp_4_1 + xp_3_2 + xp_3_1 <= 33878.0103533648
 r_24: + xp_128_0 + xp_126_7 + xp_126_6 + xp_126_5 + xp_126_2 + xp_103_0
 + xp_94_5 + xp_94_4 + xp_94_2 + xp_94_1 + xp_90_3 + xp_90_2 + xp_89_2
 + xp_89_1 + xp_74_1 + xp_61_1 + xp_40_0 + xp_39_0 + xp_38_5 + xp_38_2
 + xp_38_1 + xp_22_0 + xp_18_1 + xp_13_0 + xp_12_6 + xp_12_2 + xp_12_1
 + xp_1_1 <= 35421.6335540839
 r_25: + xp_131_5 + xp_131_4 + xp_131_3 + xp_131_0 + xp_127_0 + xp_126_4
 + xp_126_3 + xp_126_1 + xp_126_0 + xp_120_3 + xp_120_2 + xp_94_6
 + xp_94_3 + xp_94_0 + xp_93_1 + xp_90_1 + xp_90_0 + xp_89_3 + xp_89_0
 + xp_85_7 + xp_85_6 + xp_85_5 + xp_77_3 + xp_77_0 + xp_74_0 + xp_71_1
 + xp_61_0 + xp_55_1 + xp_52_1 + xp_42_3 + xp_42_0 + xp_38_4 + xp_38_3
 + xp_38_0 + xp_32_5 + xp_32_4 + xp_32_3 + xp_32_2 + xp_28_3 + xp_28_2
 + xp_24_8 + xp_24_6 + xp_24_5 + xp_24_4 + xp_24_1 + xp_19_5 + xp_19_4
 + xp_12_5 + xp_12_4 + xp_12_3 + xp_12_0 + xp_1_0 <= 35421.6335540839
 r_26: + xp_128_5 + xp_128_4 + xp_128_3 + xp_128_2 + xp_128_1 + xp_123_1
 + xp_121_0 + xp_112_5 + xp_112_4 + xp_112_3 + xp_112_2 + xp_112_1
 + xp_112_0 + xp_108_2 + xp_107_0 + xp_81_4 + xp_81_3 + xp_81_2
 + xp_81_1 + xp_81_0 + xp_79_2 + xp_79_1 + xp_79_0 + xp_78_6 + xp_78_5
 + xp_78_3 + xp_73_2 + xp_73_1 + xp_67_1 + xp_64_0 + xp_60_3 + xp_60_2
 + xp_60_1 + xp_60_0 + xp_57_1 + xp_47_0 + xp_46_2 + xp_46_1 + xp_44_4
 + xp_44_3 + xp_44_2 + xp_40_3 + xp_40_2 + xp_40_1 + xp_37_0 + xp_29_0
 + xp_25_0 + xp_22_1 + xp_18_5 + xp_18_4 + xp_18_3 + xp_18_2 + xp_18_0
 + xp_17_1 + xp_17_0 + xp_13_2 + xp_13_1 + xp_6_1 + xp_4_5 + xp_4_4
 + xp_4_3 + xp_4_2 + xp_4_1 + xp_4_0 <= 33574.949790031
 r_27: + xp_131_1 + xp_127_1 + xp_126_7 + xp_126_6 + xp_126_5 + xp_125_0
 + xp_120_1 + xp_117_2 + xp_116_0 + xp_115_0 + xp_108_0 + xp_101_1
 + xp_99_1 + xp_98_3 + xp_98_1 + xp_96_1 + xp_94_4 + xp_94_2 + xp_92_3
 + xp_92_2 + xp_92_1 + xp_90_3 + xp_89_1 + xp_86_1 + xp_85_3 + xp_85_1
 + xp_82_2 + xp_78_1 + xp_77_1 + xp_75_1 + xp_74_1 + xp_72_0 + xp_67_0
 + xp_65_0 + xp_58_3 + xp_58_2 + xp_58_1 + xp_57_0 + xp_54_1 + xp_52_0
 + xp_50_0 + xp_48_3 + xp_48_2 + xp_48_1 + xp_42_1 + xp_38_2 + xp_32_7
 + xp_32_6 + xp_32_1 + xp_28_1 + xp_26_4 + xp_26_1 + xp_24_9 + xp_24_2
 + xp_23_0 + xp_19_1 + xp_15_4 + xp_15_3 + xp_14_0 + xp_12_2 + xp_11_0
 <= 33574.949790031
 r_28: + xp_131_6 + xp_131_5 + xp_131_4 + xp_131_3 + xp_131_2 + xp_126_2
 + xp_126_0 + xp_125_1 + xp_124_3 + xp_124_1 + xp_120_3 + xp_120_0
 + xp_116_1 + xp_115_1 + xp_109_0 + xp_99_2 + xp_99_0 + xp_98_4
 + xp_98_2 + xp_98_0 + xp_96_0 + xp_94_6 + xp_94_5 + xp_94_3 + xp_94_1
 + xp_92_0 + xp_90_2 + xp_90_1 + xp_89_3 + xp_89_2 + xp_86_2 + xp_86_0
 + xp_85_7 + xp_85_6 + xp_85_4 + xp_85_2 + xp_85_0 + xp_77_3 + xp_77_2
 + xp_75_0 + xp_68_1 + xp_65_1 + xp_58_0 + xp_54_0 + xp_51_1 + xp_48_0
 + xp_42_3 + xp_42_2 + xp_38_5 + xp_38_4 + xp_38_3 + xp_38_1 + xp_36_1
 + xp_32_3 + xp_32_0 + xp_28_2 + xp_28_0 + xp_26_3 + xp_26_2 + xp_26_0
 + xp_24_7 + xp_24_6 + xp_24_5 + xp_24_4 + xp_24_3 + xp_24_0 + xp_19_5
 + xp_19_3 + xp_19_2 + xp_19_0 + xp_12_6 + xp_12_5 + xp_12_4 + xp_12_3
 + xp_12_1 + xp_11_1 + xp_0_2 + xp_0_1 <= 33574.949790031
 r_29: + xp_129_1 + xp_129_0 + xp_95_2 + xp_95_1 + xp_95_0 + xp_93_1
 + xp_93_0 + xp_87_0 + xp_71_1 + xp_71_0 + xp_62_0 + xp_49_2 + xp_49_1
 + xp_49_0 + xp_45_4 + xp_45_3 + xp_45_2 + xp_45_1 + xp_45_0 + xp_10_1
 + xp_10_0 + xp_9_5 + xp_9_4 + xp_9_3 + xp_9_2 + xp_9_1 + xp_9_0
 + xp_1_1 + xp_1_0 <= 39820.1058201058
 r_30: + xp_125_1 + xp_125_0 + xp_121_0 + xp_102_0 + xp_99_2 + xp_99_1
 + xp_99_0 + xp_96_1 + xp_96_0 + xp_92_3 + xp_92_2 + xp_92_1 + xp_92_0
 + xp_57_1 + xp_57_0 + xp_37_0 + xp_26_4 + xp_26_3 + xp_26_2 + xp_26_1
 + xp_26_0 + xp_23_0 + xp_11_1 + xp_11_0 <= 39820.1058201058

Bounds
 0 <= xp_0_0 <= 110.271535221573
 0 <= xp_0_1 <= 121.250952148396
 0 <= xp_0_2 <= 7.16048930010217
 0 <= xp_1_0 <= 132.599727648055
 0 <= xp_1_1 <= 52.0795587698491
 0 <= xp_2_0 <= 6.04974673269339
 0 <= xp_2_1 <= 110.291536588333
 0 <= xp_3_0 <= 153.800109674162
 0 <= xp_3_1 <= 30.2436666505544
 0 <= xp_3_2 <= 0.368825203055542
 0 <= xp_4_0 <= 746.916639303681
 0 <= xp_4_1 <= 15.9597572500787
 0 <= xp_4_2 <= 23.9396358751181
 0 <= xp_4_3 <= 7.97987862503937
 0 <= xp_4_4 <= 1.59597572500787
 0 <= xp_4_5 <= 1.59597572500787
 0 <= xp_5_0 <= 1095.8748847838
 0 <= xp_6_0 <= 1776.33871647897
 0 <= xp_6_1 <= 36.2518105403869
 0 <= xp_7_0 <= 645.644119014806
 0 <= xp_8_0 <= 1527.17102335326
 0 <= xp_9_0 <= 19.4863982372129
 0 <= xp_9_1 <= 31.5285544512208
 0 <= xp_9_2 <= 31.5285544512208
 0 <= xp_9_3 <= 25.835898786417
 0 <= xp_9_4 <= 0.656844884400433
 0 <= xp_9_5 <= 0.437896589600289
 0 <= xp_10_0 <= 55.0266934907219
 0 <= xp_10_1 <= 0.44376365718324
 0 <= xp_11_0 <= 17.137171040021
 0 <= xp_11_1 <= 24.8656991561088
 0 <= xp_12_0 <= 694.215171370042
 0 <= xp_12_1 <= 317.83345195255
 0 <= xp_12_2 <= 238.375088964412
 0 <= xp_12_3 <= 794.583629881373
 0 <= xp_12_4 <= 33.4561528371105
 0 <= xp_12_5 <= 8.36403820927763
 0 <= xp_12_6 <= 4.18201910463881
 0 <= xp_13_0 <= 15.2930450247433
 0 <= xp_13_1 <= 188.614221971836
 0 <= xp_13_2 <= 50.9768167491446
 0 <= xp_14_0 <= 95.6672039256011
 0 <= xp_14_1 <= 126.81466566882
 0 <= xp_15_0 <= 347.792565825332
 0 <= xp_15_1 <= 41.0374708938443
 0 <= xp_15_2 <= 55.4005857066898
 0 <= xp_15_3 <= 43.0893444385365
 0 <= xp_15_4 <= 25.6484193086527
 0 <= xp_16_0 <= 2671.44921569643
 0 <= xp_17_0 <= 225.966374368914
 0 <= xp_17_1 <= 74.5208255897483
 0 <= xp_18_0 <= 217.894889484115
 0 <= xp_18_1 <= 7.9894792810842
 0 <= xp_18_2 <= 37.7684475105799
 0 <= xp_18_3 <= 74.084262424599
 0 <= xp_18_4 <= 18.1579074570096
 0 <= xp_18_5 <= 7.26316298280382
 0 <= xp_19_0 <= 608.255964157549
 0 <= xp_19_1 <= 419.782285122815
 0 <= xp_19_2 <= 12.8504781160046
 0 <= xp_19_3 <= 8.56698541066972
 0 <= xp_19_4 <= 12.8504781160046
 0 <= xp_19_5 <= 8.56698541066972
 0 <= xp_20_0 <= 129.742199050268
 0 <= xp_21_0 <= 239.920394560295
 0 <= xp_21_1 <= 22.7702226318798
 0 <= xp_21_2 <= 14.9950246600184
 0 <= xp_22_0 <= 79.7707843369297
 0 <= xp_22_1 <= 1166.6477209276
 0 <= xp_23_0 <= 52.603594578963
 0 <= xp_24_0 <= 21.3666600551037
 0 <= xp_24_1 <= 50.3150381942765
 0 <= xp_24_2 <= 52.3827794899317
 0 <= xp_24_3 <= 39.9763317160005
 0 <= xp_24_4 <= 62.032238869656
 0 <= xp_24_5 <= 59.2752504754491
 0 <= xp_24_6 <= 11.7172006753795
 0 <= xp_24_7 <= 24.8128955478624
 0 <= xp_24_8 <= 17.2311774637933
 0 <= xp_24_9 <= 5.51397678841387
 0 <= xp_25_0 <= 585.57334751208
 0 <= xp_26_0 <= 3.41756686706925
 0 <= xp_26_1 <= 4.07001145078247
 0 <= xp_26_2 <= 4.53604329629191
 0 <= xp_26_3 <= 2.88939744215855
 0 <= xp_26_4 <= 0.62137579401259
 0 <= xp_27_0 <= 219.493398715579
 0 <= xp_27_1 <= 122.396630436413
 0 <= xp_28_0 <= 393.070859842086
 0 <= xp_28_1 <= 266.099516800314
 0 <= xp_28_2 <= 9.4553127797066
 0 <= xp_28_3 <= 6.75379484264757
 0 <= xp_29_0 <= 2476.83591712101
 0 <= xp_30_0 <= 85.7222576876083
 0 <= xp_30_1 <= 75.3316809982013
 0 <= xp_30_2 <= 24.492073625031
 0 <= xp_31_0 <= 192.879846789531
 0 <= xp_32_0 <= 706.166254694071
 0 <= xp_32_1 <= 209.571920747918
 0 <= xp_32_2 <= 145.789162259421
 0 <= xp_32_3 <= 879.290884877134
 0 <= xp_32_4 <= 264.242856595201
 0 <= xp_32_5 <= 18.2236452824276
 0 <= xp_32_6 <= 31.8913792442483
 0 <= xp_32_7 <= 22.7795566030345
 0 <= xp_33_0 <= 8155.69063886028
 0 <= xp_34_0 <= 343.267189924645
 0 <= xp_34_1 <= 173.701469600422
 0 <= xp_35_0 <= 264.151383677882
 0 <= xp_36_0 <= 167.187291131561
 0 <= xp_36_1 <= 155.568097153306
 0 <= xp_37_0 <= 369.225230390745
 0 <= xp_38_0 <= 168.056283846063
 0 <= xp_38_1 <= 10.1646945874635
 0 <= xp_38_2 <= 4.74352414081628
 0 <= xp_38_3 <= 145.693955753644
 0 <= xp_38_4 <= 9.48704828163257
 0 <= xp_38_5 <= 0.677646305830898
 0 <= xp_39_0 <= 1592.24213654598
 0 <= xp_40_0 <= 34.3730154893917
 0 <= xp_40_1 <= 257.797616170438
 0 <= xp_40_2 <= 152.959918927793
 0 <= xp_40_3 <= 414.194836647173
 0 <= xp_41_0 <= 59.8454227705556
 0 <= xp_41_1 <= 21.0267701626277
 0 <= xp_42_0 <= 173.740672279272
 0 <= xp_42_1 <= 61.5906086915938
 0 <= xp_42_2 <= 31.2549357539431
 0 <= xp_42_3 <= 193.045191421414
 0 <= xp_43_0 <= 497.967361103002
 0 <= xp_44_0 <= 207.916074265075
 0 <= xp_44_1 <= 70.5429537685074
 0 <= xp_44_2 <= 129.947546415671
 0 <= xp_44_3 <= 16.7075416820149
 0 <= xp_44_4 <= 19.4921319623507
 0 <= xp_44_5 <= 19.4921319623507
 0 <= xp_45_0 <= 30.1487268296665
 0 <= xp_45_1 <= 3.27329034150666
 0 <= xp_45_2 <= 6.54658068301332
 0 <= xp_45_3 <= 2.32575892686
 0 <= xp_45_4 <= 0.77525297562
 0 <= xp_46_0 <= 1020.40226082115
 0 <= xp_46_1 <= 474.454554394551
 0 <= xp_46_2 <= 120.238482963002
 0 <= xp_46_3 <= 9.74906618618938
 0 <= xp_47_0 <= 889.527451042493
 0 <= xp_48_0 <= 2070.7932375379
 0 <= xp_48_1 <= 676.537563400165
 0 <= xp_48_2 <= 88.2440300087172
 0 <= xp_48_3 <= 105.892836010461
 0 <= xp_49_0 <= 87.3566360367967
 0 <= xp_49_1 <= 1.60450964149217
 0 <= xp_49_2 <= 0.178278849054685
 0 <= xp_50_0 <= 242.898998098203
 0 <= xp_50_1 <= 408.006813798941
 0 <= xp_50_2 <= 125.418436926523
 0 <= xp_50_3 <= 17.4633266606551
 0 <= xp_51_0 <= 509.862173915212
 0 <= xp_51_1 <= 208.25356399354
 0 <= xp_52_0 <= 319.100471865577
 0 <= xp_52_1 <= 351.278670709165
 0 <= xp_53_0 <= 105.717224010307
 0 <= xp_53_1 <= 64.1991869444411
 0 <= xp_53_2 <= 22.2967236094466
 0 <= xp_54_0 <= 2115.73937552398
 0 <= xp_54_1 <= 1622.31605826398
 0 <= xp_55_0 <= 261.487068282999
 0 <= xp_55_1 <= 937.994896317914
 0 <= xp_56_0 <= 95.582798157874
 0 <= xp_56_1 <= 0.775519660510134
 0 <= xp_56_2 <= 0.581639745382601
 0 <= xp_57_0 <= 47.1317540031901
 0 <= xp_57_1 <= 161.415830081721
 0 <= xp_58_0 <= 2668.80103473737
 0 <= xp_58_1 <= 1003.1010785737
 0 <= xp_58_2 <= 533.760206947475
 0 <= xp_58_3 <= 395.718774116231
 0 <= xp_59_0 <= 10449.6187239461
 0 <= xp_59_1 <= 64.6368168491513
 0 <= xp_59_2 <= 258.547267396605
 0 <= xp_60_0 <= 144.069844772726
 0 <= xp_60_1 <= 529.628191259732
 0 <= xp_60_2 <= 10.976750077922
 0 <= xp_60_3 <= 1.37209375974025
 0 <= xp_61_0 <= 2277.84965305962
 0 <= xp_61_1 <= 171.451049155025
 0 <= xp_62_0 <= 132.80907528681
 0 <= xp_63_0 <= 105.926838333953
 0 <= xp_63_1 <= 27.4822779556602
 0 <= xp_64_0 <= 1006.40210414377
 0 <= xp_65_0 <= 332.025355065928
 0 <= xp_65_1 <= 196.67743962504
 0 <= xp_66_0 <= 1700.31618827285
 0 <= xp_67_0 <= 90.0888227362204
 0 <= xp_67_1 <= 319.405826064781
 0 <= xp_68_0 <= 450.332906081914
 0 <= xp_68_1 <= 566.644054010355
 0 <= xp_68_2 <= 337.004095279843
 0 <= xp_68_3 <= 137.187507813034
 0 <= xp_69_0 <= 1739.38552467752
 0 <= xp_70_0 <= 639.310352874105
 0 <= xp_71_0 <= 15.9258882690317
 0 <= xp_71_1 <= 55.8123471770567
 0 <= xp_72_0 <= 606.308097720019
 0 <= xp_73_0 <= 803.409566320368
 0 <= xp_73_1 <= 117.708843437635
 0 <= xp_73_2 <= 13.0787603819594
 0 <= xp_74_0 <= 943.573677534635
 0 <= xp_74_1 <= 21.2255837482228
 0 <= xp_75_0 <= 1210.493517057
 0 <= xp_75_1 <= 574.895151168664
 0 <= xp_76_0 <= 1742.98577069432
 0 <= xp_77_0 <= 303.451669197397
 0 <= xp_77_1 <= 94.9734231839174
 0 <= xp_77_2 <= 2.3164249557053
 0 <= xp_77_3 <= 178.364721589309
 0 <= xp_78_0 <= 736.663271990252
 0 <= xp_78_1 <= 736.663271990252
 0 <= xp_78_2 <= 11729.9459463063
 0 <= xp_78_3 <= 3513.31714333813
 0 <= xp_78_4 <= 8556.62723619447
 0 <= xp_78_5 <= 1643.32576059364
 0 <= xp_78_6 <= 1416.66013844279
 0 <= xp_79_0 <= 187.677624637684
 0 <= xp_79_1 <= 133.747272730303
 0 <= xp_79_2 <= 757.182140779623
 0 <= xp_80_0 <= 41.5473724037809
 0 <= xp_80_1 <= 27.8504364464905
 0 <= xp_80_2 <= 98.6179388924907
 0 <= xp_80_3 <= 60.2665182120777
 0 <= xp_81_0 <= 203.924868199325
 0 <= xp_81_1 <= 20.603807926875
 0 <= xp_81_2 <= 32.2264688087019
 0 <= xp_81_3 <= 4.75472490620192
 0 <= xp_81_4 <= 2.64151383677884
 0 <= xp_82_0 <= 64.093979755283
 0 <= xp_82_1 <= 8.0117474694104
 0 <= xp_82_2 <= 79.6723776124699
 0 <= xp_82_3 <= 70.7704359797917
 0 <= xp_83_0 <= 357.117736378655
 0 <= xp_83_1 <= 153.050458447994
 0 <= xp_84_0 <= 295.591932115362
 0 <= xp_84_1 <= 605.602982870496
 0 <= xp_85_0 <= 23.1743835828781
 0 <= xp_85_1 <= 221.811957150404
 0 <= xp_85_2 <= 52.9700196180072
 0 <= xp_85_3 <= 16.5531311306272
 0 <= xp_85_4 <= 81.9379990966049
 0 <= xp_85_5 <= 9.10422212184499
 0 <= xp_85_6 <= 3.31062622612545
 0 <= xp_85_7 <= 4.96593933918817
 0 <= xp_86_0 <= 2.08334236172805
 0 <= xp_86_1 <= 109.722697717678
 0 <= xp_86_2 <= 61.8058233979319
 0 <= xp_87_0 <= 143.076443556977
 0 <= xp_88_0 <= 260.100173511857
 0 <= xp_88_1 <= 170.529252832277
 0 <= xp_89_0 <= 1551.87004445303
 0 <= xp_89_1 <= 35.9853923351429
 0 <= xp_89_2 <= 13.4945221256786
 0 <= xp_89_3 <= 647.737062032573
 0 <= xp_90_0 <= 5275.12846711193
 0 <= xp_90_1 <= 9758.98766415707
 0 <= xp_90_2 <= 4571.77800483034
 0 <= xp_90_3 <= 2373.80781020036
 0 <= xp_91_0 <= 457.516196940123
 0 <= xp_91_1 <= 347.271330207564
 0 <= xp_91_2 <= 1951.33414116631
 0 <= xp_92_0 <= 29.9401792455816
 0 <= xp_92_1 <= 16.9344905235191
 0 <= xp_92_2 <= 20.7278164007873
 0 <= xp_92_3 <= 0.135475924188153
 0 <= xp_93_0 <= 105.449605723057
 0 <= xp_93_1 <= 26.6927573384181
 0 <= xp_94_0 <= 66.2813292241635
 0 <= xp_94_1 <= 21.1331774337913
 0 <= xp_94_2 <= 91.7372020421396
 0 <= xp_94_3 <= 11.0468882040273
 0 <= xp_94_4 <= 7.68479179410592
 0 <= xp_94_5 <= 27.3770707665024
 0 <= xp_94_6 <= 14.8892841010802
 0 <= xp_95_0 <= 45.6089832805241
 0 <= xp_95_1 <= 6.46230825773094
 0 <= xp_95_2 <= 10.066287863004
 0 <= xp_96_0 <= 51.2203000538369
 0 <= xp_96_1 <= 65.7210242699915
 0 <= xp_97_0 <= 534.43651982885
 0 <= xp_98_0 <= 11.3055725474574
 0 <= xp_98_1 <= 84.356964392567
 0 <= xp_98_2 <= 20.2920532903082
 0 <= xp_98_3 <= 3.7685241824858
 0 <= xp_98_4 <= 25.2201233750973
 0 <= xp_99_0 <= 1.228483946403
 0 <= xp_99_1 <= 10.1266919906193
 0 <= xp_99_2 <= 5.24595847382904
 0 <= xp_100_0 <= 155.03032707235
 0 <= xp_100_1 <= 247.844536043297
 0 <= xp_100_2 <= 107.093318043399
 0 <= xp_101_0 <= 250.310437879923
 0 <= xp_101_1 <= 3.04020774752941
 0 <= xp_102_0 <= 76.0051936882349
 0 <= xp_103_0 <= 1459.83308859439
 0 <= xp_104_0 <= 42.7975911687298
 0 <= xp_104_1 <= 88.2700317855047
 0 <= xp_104_2 <= 2.67484944804561
 0 <= xp_105_0 <= 1114.33614630333
 0 <= xp_105_1 <= 355.764310561222
 0 <= xp_106_0 <= 6.38443626981176
 0 <= xp_106_1 <= 28.8139689545449
 0 <= xp_106_2 <= 6.80446497177306
 0 <= xp_107_0 <= 456.031162129407
 0 <= xp_108_0 <= 115.36401654113
 0 <= xp_108_1 <= 110.198463561677
 0 <= xp_108_2 <= 635.363016472795
 0 <= xp_109_0 <= 337.188907908707
 0 <= xp_109_1 <= 643.011405779397
 0 <= xp_110_0 <= 135.075896852953
 0 <= xp_111_0 <= 2621.76955425287
 0 <= xp_111_1 <= 130.495317180007
 0 <= xp_111_2 <= 47.4528426109117
 0 <= xp_111_3 <= 118.632106527279
 0 <= xp_111_4 <= 47.4528426109117
 0 <= xp_112_0 <= 4253.12476352554
 0 <= xp_112_1 <= 180.378059167376
 0 <= xp_112_2 <= 85.4422385529677
 0 <= xp_112_3 <= 161.390895044495
 0 <= xp_112_4 <= 56.9614923686451
 0 <= xp_112_5 <= 9.49358206144086
 0 <= xp_113_0 <= 431.362809792003
 0 <= xp_114_0 <= 2431.36614335312
 0 <= xp_115_0 <= 151.434348013781
 0 <= xp_115_1 <= 72.5809596989128
 0 <= xp_116_0 <= 109.474414084963
 0 <= xp_116_1 <= 52.4699854490058
 0 <= xp_117_0 <= 890.651527854405
 0 <= xp_117_1 <= 634.490690197163
 0 <= xp_117_2 <= 445.325763927201
 0 <= xp_118_0 <= 3198.88525715926
 0 <= xp_119_0 <= 48.135289244765
 0 <= xp_119_1 <= 4.96633936652337
 0 <= xp_119_2 <= 9.29596855785145
 0 <= xp_119_3 <= 0.764052210234365
 0 <= xp_119_4 <= 0.509368140156244
 0 <= xp_120_0 <= 695.205372367111
 0 <= xp_120_1 <= 1003.20775252975
 0 <= xp_120_2 <= 264.002040139409
 0 <= xp_120_3 <= 237.601836125468
 0 <= xp_121_0 <= 76.6052346910381
 0 <= xp_122_0 <= 2306.62428599288
 0 <= xp_123_0 <= 362.640780453329
 0 <= xp_123_1 <= 158.394823646283
 0 <= xp_124_0 <= 94.3760490300167
 0 <= xp_124_1 <= 33.2270705164852
 0 <= xp_124_2 <= 3.07140987967511
 0 <= xp_124_3 <= 8.93501055905486
 0 <= xp_125_0 <= 18.7592818842621
 0 <= xp_125_1 <= 8.90927546715691
 0 <= xp_126_0 <= 2985.20105540545
 0 <= xp_126_1 <= 2161.69731598326
 0 <= xp_126_2 <= 5661.58820852759
 0 <= xp_126_3 <= 3396.95292511655
 0 <= xp_126_4 <= 1132.31764170552
 0 <= xp_126_5 <= 5404.24328995816
 0 <= xp_126_6 <= 1132.31764170552
 0 <= xp_126_7 <= 3860.17377854154
 0 <= xp_127_0 <= 361.472300607208
 0 <= xp_127_1 <= 223.434334679536
 0 <= xp_128_0 <= 18.9440945131251
 0 <= xp_128_1 <= 50.2430332739403
 0 <= xp_128_2 <= 74.1290654861414
 0 <= xp_128_3 <= 145.787162122745
 0 <= xp_128_4 <= 121.077473627365
 0 <= xp_128_5 <= 1.6473125663587
 0 <= xp_129_0 <= 12.1194948321468
 0 <= xp_129_1 <= 37.5505659553401
 0 <= xp_130_0 <= 409.294635133396
 0 <= xp_131_0 <= 177.502529339504
 0 <= xp_131_1 <= 157.261012835877
 0 <= xp_131_2 <= 140.133575794346
 0 <= xp_131_3 <= 286.495310512884
 0 <= xp_131_4 <= 9.34223838628972
 0 <= xp_131_5 <= 6.22815892419315
 0 <= xp_131_6 <= 1.55703973104829

End
